611210 54150.8
309270 285430
4418.2 637920
311977 284102
109995 514892
313679 283176
568285 78205.7
34895.8 590642
316756 283131
409972 251179
251360 358103
141326 474709
186576 433903
174222 442668
446198 197645
507135 151154
137631 480107
129463 509202
156364 460532
393932 263413
552121 79010.8
373946 281081
403419 258733
475945 167311
221148 398525
41085.3 573796
74183.2 543434
606561 57101.4
151145 463685
217221 405717
549128 94864.5
289458 335917
248401 365743
81958.1 532258
42809.1 561149
322549 281697
229264 385040
249886 363972
503253 153859
293538 323711
293831 322130
447060 190576
586261 72726.9
608223 55249.2
196327 422926
113395 514182
582146 73719.4
82764.2 526709
308069 303573
9044.63 615130
213809 407087
386608 271188
186082 434138
606292 57324
